This is Ipopt version 3.14.19, running with linear solver MUMPS 5.7.3.

Number of nonzeros in equality constraint Jacobian...:     2947
Number of nonzeros in inequality constraint Jacobian.:     1966
Number of nonzeros in Lagrangian Hessian.............:        0

Total number of variables............................:       96
                     variables with only lower bounds:        2
                variables with lower and upper bounds:       94
                     variables with only upper bounds:        0
Total number of equality constraints.................:       94
Total number of inequality constraints...............:       61
        inequality constraints with only lower bounds:        1
   inequality constraints with lower and upper bounds:       60
        inequality constraints with only upper bounds:        0

iter    objective    inf_pr   inf_du lg(mu)  ||d||  lg(rg) alpha_du alpha_pr  ls
   0  3.0000000e-01 1.90e+02 4.39e-01  -5.0 0.00e+00    -  0.00e+00 0.00e+00   0
   1  3.3193430e-01 1.87e+02 1.03e+00  -5.0 2.28e+01    -  2.83e-03 1.40e-02h  1
   2  3.3568783e-01 1.87e+02 1.23e+00  -5.0 2.51e+01    -  1.19e-02 1.50e-03h  1
   3  1.0544148e+00 1.33e+02 5.69e+00  -5.0 2.47e+01    -  1.38e-02 2.91e-01h  1
   4  1.1596785e+00 1.25e+02 5.79e+00  -5.0 1.85e+01    -  1.22e-02 5.69e-02h  1
   5  1.2411578e+00 1.18e+02 5.10e+00  -5.0 1.47e+01    -  6.94e-02 5.55e-02h  1
   6  2.6212139e+00 4.07e-03 5.00e+00  -5.0 1.38e+01    -  5.58e-02 1.00e+00h  1
   7  2.5690324e+00 3.91e-07 1.41e-01  -5.0 5.22e-01    -  9.69e-01 1.00e+00h  1
   8  2.5690315e+00 5.87e-12 1.61e-02  -5.0 1.35e-04    -  4.61e-01 1.00e+00h  1
   9  2.4781950e+00 2.10e-02 7.60e-02  -5.0 7.70e+00    -  2.94e-01 1.30e-01f  1
iter    objective    inf_pr   inf_du lg(mu)  ||d||  lg(rg) alpha_du alpha_pr  ls
  10  2.4820797e+00 1.29e-02 1.63e-02  -5.0 1.59e-01    -  7.96e-01 8.97e-01h  1
  11  2.4845773e+00 7.35e-06 1.72e-02  -5.0 3.19e-02    -  3.09e-01 1.00e+00h  1
  12  2.4841568e+00 4.59e-06 3.54e-03  -5.0 6.10e-03    -  1.00e+00 1.00e+00h  1
  13  2.4840786e+00 1.80e-07 9.96e-04  -5.0 1.46e-03    -  1.00e+00 1.00e+00h  1
  14  2.4840713e+00 2.97e-12 6.92e-07  -5.0 1.08e-04    -  1.00e+00 1.00e+00h  1
  15  2.4840514e+00 2.20e-08 2.77e-06  -7.0 2.04e-04    -  1.00e+00 9.76e-01h  1
  16  2.4840512e+00 2.27e-14 6.78e-08  -7.0 1.39e-06    -  1.00e+00 1.00e+00f  1

Number of Iterations....: 16

                                   (scaled)                 (unscaled)
Objective...............:   2.4840512484755628e+00    2.4840512484755628e+00
Dual infeasibility......:   6.7830750707151293e-08    6.7830750707151293e-08
Constraint violation....:   2.2737367544323207e-14    2.2737367544323207e-14
Variable bound violation:   0.0000000000000000e+00    0.0000000000000000e+00
Complementarity.........:   9.0940173179364929e-08    9.0940173179364929e-08
Overall NLP error.......:   9.0940173179364929e-08    9.0940173179364929e-08


Number of objective function evaluations             = 17
Number of objective gradient evaluations             = 17
Number of equality constraint evaluations            = 17
Number of inequality constraint evaluations          = 17
Number of equality constraint Jacobian evaluations   = 17
Number of inequality constraint Jacobian evaluations = 17
Number of Lagrangian Hessian evaluations             = 0
Total seconds in IPOPT                               = 3.195

EXIT: Optimal Solution Found.
